54220
48, 49, 19, 44, 8, 38, 50, 20, 24, 35, 5, 32, 41, 13, 51, 37, 7, 40, 43, 3, 6, 28, 55, 26, 53, 34, 54, 47, 30, 4, 18, 12, 42, 33, 1, 27, 31, 25, 11, 45, 52, 2, 14, 9, 10, 22, 16, 15, 36, 46, 39, 29, 21, 23, 17
